* ENCODING=ISO-8859-1
NAME          location.lp
ROWS
 N  obj      
 E  c1       
 E  c2       
 E  c3       
 L  c4       
 L  c5       
 L  c6       
 L  c7       
 E  c8       
 E  c9       
 E  c10      
 E  c11      
 E  c12      
 E  c13      
 E  c14      
 E  c15      
 E  c16      
 G  c17      
 G  c18      
 G  c19      
 G  c20      
 G  c21      
 G  c22      
 G  c23      
 G  c24      
 G  c25      
 G  c26      
 G  c27      
 G  c28      
 G  c29      
 G  c30      
 G  c31      
 G  c32      
 G  c33      
 G  c34      
 G  c35      
 G  c36      
 G  c37      
 G  c38      
 G  c39      
 G  c40      
 G  c41      
 G  c42      
 G  c43      
 G  c44      
 G  c45      
 G  c46      
 G  c47      
 G  c48      
 G  c49      
 G  c50      
 G  c51      
 G  c52      
COLUMNS
    cost       obj                              1
    cost       c1                              -1
    fixed      c1                               1
    fixed      c2                              -1
    transport  c1                               1
    transport  c3                              -1
    MARK0000  'MARKER'                 'INTORG'
    x1         c2                             130
    x1         c4                             -90
    x1         c17                              1
    x1         c18                              1
    x1         c19                              1
    x1         c20                              1
    x1         c21                              1
    x1         c22                              1
    x1         c23                              1
    x1         c24                              1
    x1         c25                              1
    x2         c2                             150
    x2         c5                            -110
    x2         c26                              1
    x2         c27                              1
    x2         c28                              1
    x2         c29                              1
    x2         c30                              1
    x2         c31                              1
    x2         c32                              1
    x2         c33                              1
    x2         c34                              1
    x3         c2                             170
    x3         c6                            -130
    x3         c35                              1
    x3         c36                              1
    x3         c37                              1
    x3         c38                              1
    x3         c39                              1
    x3         c40                              1
    x3         c41                              1
    x3         c42                              1
    x3         c43                              1
    x4         c2                             180
    x4         c7                            -150
    x4         c44                              1
    x4         c45                              1
    x4         c46                              1
    x4         c47                              1
    x4         c48                              1
    x4         c49                              1
    x4         c50                              1
    x4         c51                              1
    x4         c52                              1
    y11        c3                              10
    y11        c4                              10
    y11        c8                               1
    y11        c17                             -1
    y12        c3                              30
    y12        c5                              10
    y12        c8                               1
    y12        c26                             -1
    y13        c3                              25
    y13        c6                              10
    y13        c8                               1
    y13        c35                             -1
    y14        c3                              55
    y14        c7                              10
    y14        c8                               1
    y14        c44                             -1
    y21        c3                              10
    y21        c4                              10
    y21        c9                               1
    y21        c18                             -1
    y22        c3                              25
    y22        c5                              10
    y22        c9                               1
    y22        c27                             -1
    y23        c3                              25
    y23        c6                              10
    y23        c9                               1
    y23        c36                             -1
    y24        c3                              45
    y24        c7                              10
    y24        c9                               1
    y24        c45                             -1
    y31        c3                              20
    y31        c4                              12
    y31        c10                              1
    y31        c19                             -1
    y32        c3                              23
    y32        c5                              12
    y32        c10                              1
    y32        c28                             -1
    y33        c3                              30
    y33        c6                              12
    y33        c10                              1
    y33        c37                             -1
    y34        c3                              40
    y34        c7                              12
    y34        c10                              1
    y34        c46                             -1
    y41        c3                              25
    y41        c4                              15
    y41        c11                              1
    y41        c20                             -1
    y42        c3                              10
    y42        c5                              15
    y42        c11                              1
    y42        c29                             -1
    y43        c3                              26
    y43        c6                              15
    y43        c11                              1
    y43        c38                             -1
    y44        c3                              40
    y44        c7                              15
    y44        c11                              1
    y44        c47                             -1
    y51        c3                              28
    y51        c4                              15
    y51        c12                              1
    y51        c21                             -1
    y52        c3                              12
    y52        c5                              15
    y52        c12                              1
    y52        c30                             -1
    y53        c3                              20
    y53        c6                              15
    y53        c12                              1
    y53        c39                             -1
    y54        c3                              29
    y54        c7                              15
    y54        c12                              1
    y54        c48                             -1
    y61        c3                              36
    y61        c4                              15
    y61        c13                              1
    y61        c22                             -1
    y62        c3                              19
    y62        c5                              15
    y62        c13                              1
    y62        c31                             -1
    y63        c3                              16
    y63        c6                              15
    y63        c13                              1
    y63        c40                             -1
    y64        c3                              22
    y64        c7                              15
    y64        c13                              1
    y64        c49                             -1
    y71        c3                              40
    y71        c4                              20
    y71        c14                              1
    y71        c23                             -1
    y72        c3                              39
    y72        c5                              20
    y72        c14                              1
    y72        c32                             -1
    y73        c3                              22
    y73        c6                              20
    y73        c14                              1
    y73        c41                             -1
    y74        c3                              27
    y74        c7                              20
    y74        c14                              1
    y74        c50                             -1
    y81        c3                              75
    y81        c4                              25
    y81        c15                              1
    y81        c24                             -1
    y82        c3                              65
    y82        c5                              25
    y82        c15                              1
    y82        c33                             -1
    y83        c3                              55
    y83        c6                              25
    y83        c15                              1
    y83        c42                             -1
    y84        c3                              35
    y84        c7                              25
    y84        c15                              1
    y84        c51                             -1
    y91        c3                              34
    y91        c4                              30
    y91        c16                              1
    y91        c25                             -1
    y92        c3                              43
    y92        c5                              30
    y92        c16                              1
    y92        c34                             -1
    y93        c3                              41
    y93        c6                              30
    y93        c16                              1
    y93        c43                             -1
    y94        c3                              62
    y94        c7                              30
    y94        c16                              1
    y94        c52                             -1
    MARK0001  'MARKER'                 'INTEND'
RHS
    rhs        c8                               1
    rhs        c9                               1
    rhs        c10                              1
    rhs        c11                              1
    rhs        c12                              1
    rhs        c13                              1
    rhs        c14                              1
    rhs        c15                              1
    rhs        c16                              1
BOUNDS
 UP bnd        x1                               1
 UP bnd        x2                               1
 UP bnd        x3                               1
 UP bnd        x4                               1
 UP bnd        y11                              1
 UP bnd        y12                              1
 UP bnd        y13                              1
 UP bnd        y14                              1
 UP bnd        y21                              1
 UP bnd        y22                              1
 UP bnd        y23                              1
 UP bnd        y24                              1
 UP bnd        y31                              1
 UP bnd        y32                              1
 UP bnd        y33                              1
 UP bnd        y34                              1
 UP bnd        y41                              1
 UP bnd        y42                              1
 UP bnd        y43                              1
 UP bnd        y44                              1
 UP bnd        y51                              1
 UP bnd        y52                              1
 UP bnd        y53                              1
 UP bnd        y54                              1
 UP bnd        y61                              1
 UP bnd        y62                              1
 UP bnd        y63                              1
 UP bnd        y64                              1
 UP bnd        y71                              1
 UP bnd        y72                              1
 UP bnd        y73                              1
 UP bnd        y74                              1
 UP bnd        y81                              1
 UP bnd        y82                              1
 UP bnd        y83                              1
 UP bnd        y84                              1
 UP bnd        y91                              1
 UP bnd        y92                              1
 UP bnd        y93                              1
 UP bnd        y94                              1
ENDATA
